Welcome to the CBC MILP Solver 
Version: 2.10.12 
Build Date: Aug 20 2024 

command line - /opt/homebrew/bin/cbc computational_data/real_data/lp/iris_trial_013_margin.lp seconds 10.0 solve solu computational_data/real_data/solutions/iris_trial_013_margin.sol (default strategy 1)
 CoinLpIO::readLp(): Maximization problem reformulated as minimization
Coin0009I Switching back to maximization to get correct duals etc
seconds was changed from 1e+100 to 10
Continuous objective value is 29.4298 - 0.00 seconds
Cgl0003I 0 fixed, 0 tightened bounds, 174 strengthened rows, 4 substitutions
Cgl0003I 0 fixed, 0 tightened bounds, 169 strengthened rows, 1 substitutions
Cgl0003I 0 fixed, 0 tightened bounds, 134 strengthened rows, 0 substitutions
Cgl0003I 0 fixed, 0 tightened bounds, 127 strengthened rows, 0 substitutions
Cgl0003I 0 fixed, 0 tightened bounds, 120 strengthened rows, 0 substitutions
Cgl0003I 0 fixed, 0 tightened bounds, 121 strengthened rows, 0 substitutions
Cgl0003I 0 fixed, 0 tightened bounds, 109 strengthened rows, 0 substitutions
Cgl0003I 0 fixed, 0 tightened bounds, 92 strengthened rows, 0 substitutions
Cgl0003I 0 fixed, 0 tightened bounds, 53 strengthened rows, 0 substitutions
Cgl0004I processed model has 181 rows, 45 columns (45 integer (45 of which binary)) and 1783 elements
Cbc0038I Initial state - 29 integers unsatisfied sum - 3.91111
Cbc0038I Pass   1: suminf.    0.11111 (1) obj. 28.8965 iterations 38
Cbc0038I Pass   2: suminf.    0.11111 (1) obj. 28.8965 iterations 9
Cbc0038I Solution found of 28.0076
Cbc0038I Before mini branch and bound, 16 integers at bound fixed and 0 continuous
Cbc0038I Full problem 181 rows 45 columns, reduced to 128 rows 27 columns
Cbc0038I Mini branch and bound did not improve solution (0.02 seconds)
Cbc0038I Round again with cutoff of 28.1454
Cbc0038I Pass   3: suminf.    0.11111 (1) obj. 28.8965 iterations 0
Cbc0038I Pass   4: suminf.    0.11111 (1) obj. 28.8965 iterations 17
Cbc0038I Pass   5: suminf.    0.13779 (1) obj. 28.1454 iterations 9
Cbc0038I Pass   6: suminf.    0.13779 (1) obj. 28.1454 iterations 11
Cbc0038I Pass   7: suminf.    0.13779 (1) obj. 28.1454 iterations 5
Cbc0038I Pass   8: suminf.    0.11111 (1) obj. 28.8965 iterations 1
Cbc0038I Pass   9: suminf.    0.36001 (2) obj. 28.1454 iterations 17
Cbc0038I Pass  10: suminf.    0.36001 (2) obj. 28.1454 iterations 8
Cbc0038I Pass  11: suminf.    0.75110 (2) obj. 28.1454 iterations 4
Cbc0038I Pass  12: suminf.    0.75110 (2) obj. 28.1454 iterations 13
Cbc0038I Pass  13: suminf.    0.36001 (2) obj. 28.1454 iterations 8
Cbc0038I Pass  14: suminf.    0.75110 (2) obj. 28.1454 iterations 1
Cbc0038I Pass  15: suminf.    0.36001 (2) obj. 28.1454 iterations 10
Cbc0038I Pass  16: suminf.    0.36001 (2) obj. 28.1454 iterations 4
Cbc0038I Pass  17: suminf.    0.75110 (2) obj. 28.1454 iterations 1
Cbc0038I Pass  18: suminf.    0.11111 (1) obj. 28.8965 iterations 29
Cbc0038I Pass  19: suminf.    0.11111 (1) obj. 28.8965 iterations 7
Cbc0038I Pass  20: suminf.    0.13779 (1) obj. 28.1454 iterations 7
Cbc0038I Pass  21: suminf.    0.13779 (1) obj. 28.1454 iterations 17
Cbc0038I Pass  22: suminf.    0.13779 (1) obj. 28.1454 iterations 9
Cbc0038I Pass  23: suminf.    0.11111 (1) obj. 28.8965 iterations 3
Cbc0038I Pass  24: suminf.    0.11111 (1) obj. 28.8965 iterations 21
Cbc0038I Pass  25: suminf.    0.11111 (1) obj. 28.8965 iterations 6
Cbc0038I Pass  26: suminf.    0.13779 (1) obj. 28.1454 iterations 2
Cbc0038I Pass  27: suminf.    0.44444 (1) obj. 28.452 iterations 14
Cbc0038I Pass  28: suminf.    0.13779 (1) obj. 28.1454 iterations 8
Cbc0038I Pass  29: suminf.    0.11111 (1) obj. 28.8965 iterations 1
Cbc0038I Pass  30: suminf.    0.36001 (2) obj. 28.1454 iterations 16
Cbc0038I Pass  31: suminf.    0.36001 (2) obj. 28.1454 iterations 9
Cbc0038I Pass  32: suminf.    0.75110 (2) obj. 28.1454 iterations 1
Cbc0038I No solution found this major pass
Cbc0038I Before mini branch and bound, 2 integers at bound fixed and 0 continuous
Cbc0038I Full problem 181 rows 45 columns, reduced to 163 rows 43 columns - 3 fixed gives 22, 13 - ok now
Cbc0038I Full problem 181 rows 45 columns, reduced to 17 rows 10 columns
Cbc0038I Mini branch and bound did not improve solution (0.03 seconds)
Cbc0038I After 0.03 seconds - Feasibility pump exiting with objective of 28.0076 - took 0.01 seconds
Cbc0012I Integer solution of 28.0076 found by feasibility pump after 0 iterations and 0 nodes (0.03 seconds)
Cbc0038I Full problem 181 rows 45 columns, reduced to 128 rows 27 columns
Cbc0031I 3 added rows had average density of 42.666667
Cbc0013I At root node, 14 cuts changed objective from 29.385385 to 28.0076 in 1 passes
Cbc0014I Cut generator 0 (Probing) - 4 row cuts average 11.5 elements, 0 column cuts (0 active)  in 0.000 seconds - new frequency is 1
Cbc0014I Cut generator 1 (Gomory) - 3 row cuts average 36.7 elements, 0 column cuts (0 active)  in 0.000 seconds - new frequency is 1
Cbc0014I Cut generator 2 (Knapsack) - 1 row cuts average 5.0 elements, 0 column cuts (0 active)  in 0.000 seconds - new frequency is 1
Cbc0014I Cut generator 3 (Clique) - 0 row cuts average 0.0 elements, 0 column cuts (0 active)  in 0.000 seconds - new frequency is -100
Cbc0014I Cut generator 4 (MixedIntegerRounding2) - 0 row cuts average 0.0 elements, 0 column cuts (0 active)  in 0.000 seconds - new frequency is -100
Cbc0014I Cut generator 5 (FlowCover) - 0 row cuts average 0.0 elements, 0 column cuts (0 active)  in 0.000 seconds - new frequency is -100
Cbc0014I Cut generator 6 (TwoMirCuts) - 6 row cuts average 28.3 elements, 0 column cuts (0 active)  in 0.000 seconds - new frequency is -100
Cbc0001I Search completed - best objective 28.0076, took 0 iterations and 0 nodes (0.03 seconds)
Cbc0035I Maximum depth 0, 0 variables fixed on reduced cost
Cuts at root node changed objective from 29.3854 to 28.0076
Probing was tried 1 times and created 4 cuts of which 0 were active after adding rounds of cuts (0.000 seconds)
Gomory was tried 1 times and created 3 cuts of which 0 were active after adding rounds of cuts (0.000 seconds)
Knapsack was tried 1 times and created 1 cuts of which 0 were active after adding rounds of cuts (0.000 seconds)
Clique was tried 1 times and created 0 cuts of which 0 were active after adding rounds of cuts (0.000 seconds)
MixedIntegerRounding2 was tried 1 times and created 0 cuts of which 0 were active after adding rounds of cuts (0.000 seconds)
FlowCover was tried 1 times and created 0 cuts of which 0 were active after adding rounds of cuts (0.000 seconds)
TwoMirCuts was tried 1 times and created 6 cuts of which 0 were active after adding rounds of cuts (0.000 seconds)
ZeroHalf was tried 1 times and created 0 cuts of which 0 were active after adding rounds of cuts (0.001 seconds)

Result - Optimal solution found

Objective value:                28.00760000
Enumerated nodes:               0
Total iterations:               0
Time (CPU seconds):             0.03
Time (Wallclock seconds):       0.03

Total time (CPU seconds):       0.03   (Wallclock seconds):       0.04

